NAME cycling
ROWS
  N obj
  L c0
  L c1
  L c2
COLUMNS
  x1  c0  0.5
  x1  c1  0.5
  x1  c2  1
  x1  obj -10 
  x2  c0  -5.5
  x2  c1  -1.5
  x2  c2  0
  x2  obj 57
  x3  c0  -2.5
  x3  c1  -0.5
  x3  c2  0
  x3  obj 9
  x4  c0  9
  x4  c1  1
  x4  c2  0
  x4 obj  24
RHS
  rhs c0  0
  rhs c1  0
  rhs c2  1
ENDATA
